Solver command line: ['C:\\Users\\Gabriela Escobar\\anaconda3\\envs\\pyomo_env\\Library\\bin\\glpsol.exe', '--write', 'C:\\Users\\GABRIE~1\\AppData\\Local\\Temp\\tmp_ux0_ef7.glpk.raw', '--wglp', 'C:\\Users\\GABRIE~1\\AppData\\Local\\Temp\\tmpr0_7jawe.glpk.glp', '--cpxlp', 'C:\\Users\\GABRIE~1\\AppData\\Local\\Temp\\tmpbhz5jun4.pyomo.lp']

GLPSOL--GLPK LP/MIP Solver 5.0
Parameter(s) specified in the command line:
 --write C:\Users\GABRIE~1\AppData\Local\Temp\tmp_ux0_ef7.glpk.raw --wglp
 C:\Users\GABRIE~1\AppData\Local\Temp\tmpr0_7jawe.glpk.glp --cpxlp C:\Users\GABRIE~1\AppData\Local\Temp\tmpbhz5jun4.pyomo.lp
Reading problem data from 'C:\Users\GABRIE~1\AppData\Local\Temp\tmpbhz5jun4.pyomo.lp'...
21 rows, 21 columns, 401 non-zeros
512 lines were read
Writing problem data to 'C:\Users\GABRIE~1\AppData\Local\Temp\tmpr0_7jawe.glpk.glp'...
487 lines were written
GLPK Simplex Optimizer 5.0
21 rows, 21 columns, 401 non-zeros
Preprocessing...
20 rows, 20 columns, 400 non-zeros
Scaling...
 A: min|aij| =  5.811e-03  max|aij| =  4.948e+00  ratio =  8.516e+02
GM: min|aij| =  5.245e-02  max|aij| =  1.906e+01  ratio =  3.635e+02
EQ: min|aij| =  2.778e-03  max|aij| =  1.000e+00  ratio =  3.600e+02
Constructing initial basis...
Size of triangular part is 20
*     0: obj =  -0.000000000e+00 inf =   0.000e+00 (20)
*    12: obj =   7.246303970e+01 inf =   0.000e+00 (0)
OPTIMAL LP SOLUTION FOUND
Time used:   0.0 secs
Memory used: 0.1 Mb (112979 bytes)
Writing basic solution to 'C:\Users\GABRIE~1\AppData\Local\Temp\tmp_ux0_ef7.glpk.raw'...
51 lines were written

